p cnf 20 9
a 1 2 0
e 3 0
a 4 0
e 5 0
a 6 7 0
e 8 9 10 0
a 11 0
e 12 13 0
a 14 0
e 15 16 17 0
a 18 19 20 0
3 9 1 19 8 0
-8 -6 -15 18 0
-16 1 -14 0
-16 -12 -9 -7 0
-5 9 8 -18 0
-11 14 5 0
-10 -18 -4 -12 5 0
-18 8 -9 0
-8 -16 -4 0
